CMPL model generation - running

CMPL version: 1.11.0
Authors: Thomas Schleiff, Mike Steglich
Distributed under the GPLv3 

create model instance ...
write model instance ...
CMPL model generation - finished

Solver - running


Welcome to IBM(R) ILOG(R) CPLEX(R) Interactive Optimizer 12.7.1.0
  with Simplex, Mixed Integer & Barrier Optimizers
5725-A06 5725-A29 5724-Y48 5724-Y49 5724-Y54 5724-Y55 5655-Y21
Copyright IBM Corp. 1988, 2017.  All Rights Reserved.

Type 'help' for a list of available commands.
Type 'help' followed by a command name for more
information on commands.

CPLEX> Specified objective sense: MINIMIZE
Selected objective  name:  line[1]
Selected RHS        name:  RHS
Selected bound      name:  BOUND
Problem '/tmp/cmpl.T23548.mps' read.
Read time = 0.06 sec. (10.11 ticks)
CPLEX> CPXPARAM_Read_APIEncoding                        "UTF-8"
Tried aggregator 3 times.
MIP Presolve eliminated 24095 rows and 37753 columns.
MIP Presolve modified 425 coefficients.
Aggregator did 703 substitutions.
Reduced MIP has 3124 rows, 3999 columns, and 11855 nonzeros.
Reduced MIP has 3789 binaries, 0 generals, 0 SOSs, and 0 indicators.
Presolve time = 0.06 sec. (51.76 ticks)
Found incumbent of value 787.290605 after 0.12 sec. (123.95 ticks)
Probing fixed 9 vars, tightened 0 bounds.
Probing time = 0.01 sec. (5.06 ticks)
Tried aggregator 1 time.
MIP Presolve eliminated 0 rows and 9 columns.
MIP Presolve modified 36 coefficients.
Reduced MIP has 3124 rows, 3990 columns, and 11837 nonzeros.
Reduced MIP has 3990 binaries, 0 generals, 0 SOSs, and 0 indicators.
Presolve time = 0.01 sec. (10.05 ticks)
Probing time = 0.01 sec. (2.82 ticks)
Clique table members: 6895.
MIP emphasis: balance optimality and feasibility.
MIP search method: dynamic search.
Parallel mode: none, using 1 thread.
Root relaxation solution time = 0.00 sec. (5.44 ticks)

        Nodes                                         Cuts/
   Node  Left     Objective  IInf  Best Integer    Best Bound    ItCnt     Gap

*     0+    0                          787.2906      -34.1226           104.33%
      0     0       51.7384    18      787.2906       51.7384       95   93.43%
*     0+    0                           85.3901       51.7384            39.41%
*     0+    0                           52.1498       51.7384             0.79%
*     0     0      integral     0       52.1384       Cuts: 6       99    0.00%
      0     0        cutoff             52.1384       52.1384       99    0.00%
Elapsed time = 0.19 sec. (173.22 ticks, tree = 0.01 MB, solutions = 4)

GUB cover cuts applied:  1
Cover cuts applied:  3
Gomory fractional cuts applied:  2

Root node processing (before b&c):
  Real time             =    0.19 sec. (175.33 ticks)
Sequential b&c:
  Real time             =    0.00 sec. (0.00 ticks)
                          ------------
Total (root+branch&cut) =    0.19 sec. (175.33 ticks)

Solution pool: 4 solutions saved.

MIP - Integer optimal solution:  Objective =  5.2138363000e+01
Solution time =    0.19 sec.  Iterations = 99  Nodes = 0
Deterministic time = 175.46 ticks  (931.20 ticks/sec)

CPLEX> Incumbent solution written to file '/tmp/cmpl.T23548.gsol'.
CPLEX> 
CMPL: Time used for model generation: 0 seconds
CMPL: Time used for solving the model: 1 seconds


Solution written to ASCII file: results/output_generated_conf_0.1/2017-05-01-5/fair-nonlinear.sol

Solver - finished
